p edge 75 278
e 1 22
e 1 32
e 1 35
e 1 42
e 1 54
e 1 63
e 2 18
e 2 28
e 3 5
e 3 11
e 3 27
e 3 47
e 3 48
e 3 66
e 4 8
e 4 22
e 4 29
e 4 36
e 4 41
e 4 44
e 4 70
e 5 18
e 5 34
e 5 50
e 5 68
e 5 69
e 5 72
e 6 9
e 6 15
e 6 23
e 6 26
e 6 39
e 6 51
e 6 66
e 6 69
e 7 42
e 8 30
e 8 44
e 8 57
e 8 60
e 8 61
e 8 63
e 8 65
e 8 68
e 8 74
e 9 35
e 9 42
e 9 51
e 9 60
e 9 69
e 10 15
e 10 18
e 10 28
e 10 35
e 10 65
e 10 74
e 11 25
e 11 28
e 11 39
e 11 46
e 11 57
e 11 60
e 11 73
e 11 74
e 12 13
e 12 23
e 12 26
e 12 58
e 12 59
e 12 62
e 12 67
e 13 23
e 13 28
e 13 30
e 13 34
e 13 51
e 13 54
e 13 56
e 13 57
e 13 62
e 13 63
e 13 66
e 13 70
e 14 22
e 14 31
e 14 34
e 14 66
e 15 17
e 15 32
e 15 55
e 15 61
e 15 67
e 15 74
e 16 22
e 16 43
e 16 68
e 17 18
e 17 39
e 17 46
e 17 50
e 17 54
e 17 59
e 17 64
e 18 23
e 18 35
e 18 36
e 18 39
e 18 41
e 18 45
e 18 54
e 18 64
e 19 26
e 19 30
e 19 45
e 19 64
e 19 72
e 20 35
e 20 37
e 20 59
e 20 63
e 20 66
e 21 23
e 21 24
e 21 28
e 21 31
e 21 52
e 21 57
e 21 60
e 21 63
e 21 74
e 22 32
e 22 49
e 22 55
e 22 68
e 23 28
e 23 65
e 23 66
e 23 71
e 24 25
e 24 28
e 24 30
e 24 41
e 24 64
e 24 66
e 24 71
e 24 73
e 24 75
e 25 29
e 25 36
e 25 42
e 25 57
e 25 59
e 25 74
e 26 30
e 26 34
e 26 36
e 26 46
e 26 51
e 26 69
e 26 73
e 27 29
e 27 45
e 27 46
e 27 63
e 27 66
e 28 44
e 28 58
e 28 70
e 28 73
e 29 37
e 29 56
e 29 62
e 29 66
e 30 31
e 30 33
e 30 66
e 30 68
e 31 40
e 31 50
e 31 61
e 31 68
e 32 33
e 32 34
e 32 35
e 32 45
e 32 48
e 32 69
e 33 40
e 33 41
e 33 44
e 33 74
e 34 39
e 34 44
e 35 43
e 35 51
e 35 55
e 36 43
e 36 58
e 36 65
e 36 66
e 37 50
e 37 55
e 37 58
e 38 43
e 38 46
e 38 53
e 38 54
e 38 57
e 38 60
e 38 69
e 39 47
e 39 49
e 39 53
e 39 54
e 39 56
e 39 73
e 40 62
e 40 69
e 40 73
e 41 49
e 41 68
e 42 45
e 42 49
e 42 52
e 42 68
e 43 44
e 43 63
e 43 65
e 44 65
e 45 53
e 45 60
e 45 62
e 45 69
e 46 47
e 46 55
e 47 60
e 47 61
e 48 51
e 48 53
e 48 71
e 49 53
e 49 62
e 49 72
e 50 59
e 50 62
e 50 65
e 50 71
e 51 53
e 51 55
e 52 54
e 52 65
e 52 68
e 53 62
e 54 63
e 55 56
e 55 57
e 55 62
e 56 58
e 56 74
e 57 59
e 57 67
e 57 74
e 58 70
e 58 75
e 59 64
e 59 66
e 60 68
e 60 72
e 61 70
e 61 75
e 63 64
e 63 65
e 64 75
e 65 74
e 65 75
e 67 73
e 71 73
e 72 73
